(set-logic ALL)
(set-option :produce-models true)
(declare-sort BoundSet 0)
(declare-sort UnboundSet 0)
(set-option :finite-model-find true)
(declare-fun IsMaking (BoundSet) Bool)
(declare-fun IsSnowAngel (BoundSet) Bool)
(declare-fun IsPlays (BoundSet) Bool)
(declare-fun IsSnow (BoundSet) Bool)
(assert (not (=> (and (exists ((a BoundSet)) (exists ((b BoundSet)) (and (IsMaking a) (IsSnowAngel b)))) (and (forall ((d BoundSet)) (=> (IsMaking d) (IsPlays d))) (forall ((e BoundSet)) (=> (IsPlays e) (IsMaking e))))) (exists ((c BoundSet)) (exists ((a BoundSet)) (and (IsPlays a) (IsSnow c)))))))
(check-sat)
(get-model)